Si64
1.000
    10.8060000000000     0.0000000000000     0.0000000000000
     0.0000000000000    10.8060000000000     0.0000000000000
     0.0000000000000     0.0000000000000    10.8060000000000
Si 
64 
Direct
    0.50000000000000     0.00000000000000     0.00000000000000
    0.75000000000000     0.25000000000000     0.00000000000000
    0.75000000000000     0.00000000000000     0.25000000000000
    0.00000000000000     0.00000000000000     0.00000000000000
    0.25000000000000     0.25000000000000     0.00000000000000
    0.50000000000000     0.50000000000000     0.00000000000000
    0.75000000000000     0.75000000000000     0.00000000000000
    0.25000000000000     0.00000000000000     0.25000000000000
    0.50000000000000     0.25000000000000     0.25000000000000
    0.75000000000000     0.50000000000000     0.25000000000000
    0.50000000000000     0.00000000000000     0.50000000000000
    0.75000000000000     0.25000000000000     0.50000000000000
    0.75000000000000     0.00000000000000     0.75000000000000
    0.00000000000000     0.50000000000000     0.00000000000000
    0.25000000000000     0.75000000000000     0.00000000000000
    0.00000000000000     0.25000000000000     0.25000000000000
    0.25000000000000     0.50000000000000     0.25000000000000
    0.50000000000000     0.75000000000000     0.25000000000000
    0.00000000000000     0.00000000000000     0.50000000000000
    0.25000000000000     0.25000000000000     0.50000000000000
    0.50000000000000     0.50000000000000     0.50000000000000
    0.75000000000000     0.75000000000000     0.50000000000000
    0.25000000000000     0.00000000000000     0.75000000000000
    0.50000000000000     0.25000000000000     0.75000000000000
    0.75000000000000     0.50000000000000     0.75000000000000
    0.00000000000000     0.75000000000000     0.25000000000000
    0.00000000000000     0.50000000000000     0.50000000000000
    0.25000000000000     0.75000000000000     0.50000000000000
    0.00000000000000     0.25000000000000     0.75000000000000
    0.25000000000000     0.50000000000000     0.75000000000000
    0.50000000000000     0.75000000000000     0.75000000000000
    0.00000000000000     0.75000000000000     0.75000000000000
    0.62500000000000     0.12500000000000     0.12500000000000
    0.87500000000000     0.37500000000000     0.12500000000000
    0.87500000000000     0.12500000000000     0.37500000000000
    0.12500000000000     0.12500000000000     0.12500000000000
    0.37500000000000     0.37500000000000     0.12500000000000
    0.62500000000000     0.62500000000000     0.12500000000000
    0.87500000000000     0.87500000000000     0.12500000000000
    0.37500000000000     0.12500000000000     0.37500000000000
    0.62500000000000     0.37500000000000     0.37500000000000
    0.87500000000000     0.62500000000000     0.37500000000000
    0.62500000000000     0.12500000000000     0.62500000000000
    0.87500000000000     0.37500000000000     0.62500000000000
    0.87500000000000     0.12500000000000     0.87500000000000
    0.12500000000000     0.62500000000000     0.12500000000000
    0.37500000000000     0.87500000000000     0.12500000000000
    0.12500000000000     0.37500000000000     0.37500000000000
    0.37500000000000     0.62500000000000     0.37500000000000
    0.62500000000000     0.87500000000000     0.37500000000000
    0.12500000000000     0.12500000000000     0.62500000000000
    0.37500000000000     0.37500000000000     0.62500000000000
    0.62500000000000     0.62500000000000     0.62500000000000
    0.87500000000000     0.87500000000000     0.62500000000000
    0.37500000000000     0.12500000000000     0.87500000000000
    0.62500000000000     0.37500000000000     0.87500000000000
    0.87500000000000     0.62500000000000     0.87500000000000
    0.12500000000000     0.87500000000000     0.37500000000000
    0.12500000000000     0.62500000000000     0.62500000000000
    0.37500000000000     0.87500000000000     0.62500000000000
    0.12500000000000     0.37500000000000     0.87500000000000
    0.37500000000000     0.62500000000000     0.87500000000000
    0.62500000000000     0.87500000000000     0.87500000000000
    0.12500000000000     0.87500000000000     0.87500000000000
