pymatgen with grid density = 5662 / number of atoms
0
Monkhorst
4 4 4
